SAT
73 2 -92 75 59 89 -94 76 77 -80 60 -64 -22 -24 -79 -26 10 -90 28 40 -30 -67 -68 42 97 -27 52 -58 -5 -88 38 78 -16 -83 66 87 -6 -86 62 -50 -91 84 -11 -96 93 61 -33 20 -14 39 -70 -47 23 54 -43 56 1 25 -19 -65 99 -31 -95 45 53 -29 21 51 -57 98 -49 72 -8 34 36 74 -81 -18 -48 -3 -12 -82 -63 -85 -4 55 -71 -100 15 -46 -32 13 17 41 -69 -37 -7 -9 -35 44 0
